141
1000000
718033
221296
461542
103926
294050
172123
132033
52696
148131
289332
451185
618355
577906
232902
118360
545501
530443
90646
138568
262122
703230
187106
24956
407708
48623
729482
247837
185466
106
335025
427020
260769
157425
746504
582565
706940
25225
278267
430331
173254
238796
569669
536784
463207
81684
592951
60517
721733
340666
640771
649922
165272
648585
294147
446226
450672
350078
238706
471337
693547
552793
261874
29384
575220
46469
274310
676112
44818
503604
539674
209955
219942
506181
252565
290621
447207
56102
189031
363539
253496
32325
567985
449379
685919
736882
191777
28279
234516
152371
164674
675534
407049
245613
9546
198174
656862
420304
708499
385345
469557
742682
40495
110394
19845
212817
127368
43062
271432
357828
179195
123147
343138
332478
401590
54605
170752
170994
14104
39345
170502
192433
336536
362830
313091
93327
432073
277069
139987
192095
7074
5916
641554
147371
61060
277383
296770
358446
405763
705950
275761
365992
